(set-logic HORN)
(set-info :source |
    Benchmark: C_VC
    Output by Princess (http://www.philipp.ruemmer.org/princess.shtml)
|)
(set-info :status unsat)
;===============================================================================
; Encoding of Heap sorts and operations
;-------------------------------------------------------------------------------
(define-sort Addr() Int)
(declare-datatypes ((HeapObject 0) (sl_item 0) (sl 0) (node 0))
                   (((O_Int (getInt Int)) (O_Addr (getAddr Addr)) (O_sl_item (getsl_item sl_item)) (O_sl (getsl sl)) (O_node (getnode node)) (defObj))
                   ((sl_item (n1 Addr) (n2 Addr)))
                   ((sl (head Addr) (tail Addr)))
                   ((node (h Int) (n Addr)))))
(declare-datatypes ((AllocResHeap 0) (Heap 0))
                   (((AllocResHeap   (newHeap Heap) (newAddr Addr)))
                    ((HeapCtor (HeapSize Int)
                               (HeapContents (Array Addr HeapObject))))))
(define-fun nullAddr  () Addr 0)
(define-fun defHeapObject    () HeapObject defObj)
(define-fun valid     ((h Heap) (p Addr)) Bool
  (and (>= (HeapSize h) p) (> p 0)))
(define-fun emptyHeap () Heap (
  HeapCtor 0 (( as const (Array Addr HeapObject)) defHeapObject)))
(define-fun read ((h Heap) (p Addr)) HeapObject
  (ite (valid h p)
       (select (HeapContents h) p)
       defHeapObject))
(define-fun write ((h Heap) (p Addr) (o HeapObject)) Heap
  (ite (valid h p)
       (HeapCtor (HeapSize h) (store (HeapContents h) p o))
       h))
(define-fun alloc   ((h Heap) (o HeapObject)) AllocResHeap
  (AllocResHeap (HeapCtor (+ 1 (HeapSize h))
                    (store (HeapContents h) (+ 1 (HeapSize h)) o))
          (+ 1 (HeapSize h))))

;===============================================================================
(declare-fun inv_main11 (Heap Addr Addr Addr) Bool)
(declare-fun inv_main13 (Heap Addr Addr Addr) Bool)
(declare-fun inv_main14 (Heap Addr Addr Addr) Bool)
(declare-fun inv_main19 (Heap Addr Addr Addr) Bool)
(declare-fun inv_main2 (Heap) Bool)
(declare-fun inv_main22 (Heap Addr Addr Addr Int) Bool)
(declare-fun inv_main25 (Heap Addr Addr Addr) Bool)
(declare-fun inv_main27 (Heap Addr Addr Addr) Bool)
(declare-fun inv_main31 (Heap Addr Addr Addr) Bool)
(declare-fun inv_main32 (Heap Addr Addr Addr) Bool)
(declare-fun inv_main33 (Heap Addr Addr Addr) Bool)
(declare-fun inv_main43 (Heap Addr Addr Addr Addr Addr) Bool)
(declare-fun inv_main44 (Heap Addr Addr Addr Addr) Bool)
(declare-fun inv_main45 (Heap Addr Addr Addr Addr Addr) Bool)
(declare-fun inv_main46 (Heap Addr Addr Addr Addr) Bool)
(declare-fun inv_main47 (Heap Addr Addr Addr Addr Addr) Bool)
(declare-fun inv_main48 (Heap Addr Addr Addr Addr Addr) Bool)
(declare-fun inv_main50 (Heap Addr Addr Addr Addr Addr) Bool)
(declare-fun inv_main51 (Heap Addr Addr Addr Addr) Bool)
(declare-fun inv_main59 (Heap Addr Addr Addr Addr Addr Addr Addr Addr) Bool)
(declare-fun inv_main60 (Heap Addr Addr Addr Addr Addr Addr Addr Addr) Bool)
(declare-fun inv_main63 (Heap Addr Addr Addr Addr Addr Addr Addr Addr) Bool)
(declare-fun inv_main64 (Heap Addr Addr Addr Addr Addr Addr Addr Addr Addr) Bool)
(declare-fun inv_main69 (Heap Addr Addr Addr Addr Addr Addr Addr Addr) Bool)
(declare-fun inv_main7 (Heap Addr Int) Bool)
(declare-fun inv_main71 (Heap Addr Addr Addr Addr Addr Addr Addr Addr) Bool)
(declare-fun inv_main72 (Heap Addr Addr Addr Addr Addr Addr Addr Addr Addr) Bool)
(declare-fun inv_main77 (Heap Addr Addr Addr Addr Addr Addr Addr Addr) Bool)
(declare-fun inv_main79 (Heap Addr Addr Addr Addr Addr Addr Addr Addr) Bool)
(declare-fun inv_main80 (Heap Addr Addr Addr Addr Addr Addr Addr Addr Addr) Bool)
(declare-fun inv_main82 (Heap Addr Addr Addr Addr Addr Addr Addr Addr) Bool)
(declare-fun inv_main85 (Heap Addr Addr Addr Addr Addr Addr Addr Addr) Bool)
(declare-fun inv_main86 (Heap Addr Addr Addr Addr Addr Addr Addr Addr Addr) Bool)
(declare-fun inv_main91 (Heap Addr Addr Addr Addr Addr Addr) Bool)
(declare-fun inv_main93 (Heap Addr Addr Addr Addr Addr Addr) Bool)
(declare-fun inv_main94 (Heap Addr Addr Addr Addr Addr Addr) Bool)
(declare-fun inv_main97 (Heap Addr Addr Addr Addr Addr Addr Addr) Bool)
(assert (inv_main2 emptyHeap))
(assert (forall ((var0 Addr) (var1 Addr) (var2 Addr) (var3 Addr) (var4 Addr) (var5 Addr) (var6 Addr) (var7 Addr) (var8 Addr) (var9 Addr) (var10 Addr) (var11 Int) (var12 Heap) (var13 Int) (var14 Addr) (var15 Addr) (var16 Addr) (var17 Addr) (var18 Addr) (var19 Heap) (var20 Addr)) (or (not (and (inv_main72 var19 var0 var7 var14 var18 var6 var5 var2 var8 var10) (and (not (= var13 0)) (and (not (= var11 0)) (and (and (and (and (and (and (and (and (and (= var12 var19) (= var9 var0)) (= var17 var7)) (= var20 var14)) (= var1 var18)) (= var15 var6)) (= var4 var5)) (= var3 var2)) (= var16 var8)) (or (and (not (= var10 (n2 (getsl_item (read var19 var2))))) (= var11 1)) (and (= var10 (n2 (getsl_item (read var19 var2)))) (= var11 0)))))))) (inv_main71 var12 var9 var17 var20 var1 var15 var4 var3 var16))))
(assert (forall ((var0 Addr) (var1 Heap) (var2 Heap) (var3 Addr) (var4 Addr) (var5 Addr) (var6 Addr) (var7 Addr) (var8 Addr) (var9 Addr) (var10 node) (var11 Addr) (var12 Addr) (var13 Heap)) (or (not (and (inv_main14 var13 var0 var3 var11) (and (not (= var4 nullAddr)) (and (and (and (and (and (= var2 (newHeap (alloc var1 (O_node var10)))) (= var8 var7)) (= var12 var6)) (= var5 var9)) (= var4 (newAddr (alloc var1 (O_node var10))))) (and (and (and (= var1 (write var13 var11 (O_node (node 1 (n (getnode (read var13 var11))))))) (= var7 var0)) (= var6 var3)) (= var9 var11)))))) (inv_main19 var2 var8 var4 var5))))
(assert (forall ((var0 Addr) (var1 Addr) (var2 Addr) (var3 Addr) (var4 Addr) (var5 Heap)) (or (not (inv_main48 var5 var0 var4 var2 var1 var3)) (inv_main46 (write var5 (head (getsl (read var5 var1))) (O_sl_item (sl_item (n1 (getsl_item (read var5 (head (getsl (read var5 var1)))))) var3))) var0 var4 var2 var1))))
(assert (forall ((var0 Addr) (var1 Addr) (var2 Addr) (var3 Addr) (var4 Addr) (var5 Addr) (var6 Addr) (var7 Addr) (var8 Heap)) (or (not (inv_main69 var8 var0 var5 var2 var7 var4 var3 var1 var6)) (inv_main72 var8 var0 var5 var2 var7 var4 var3 var1 var6 (n1 (getsl_item (read var8 var3)))))))
(assert (forall ((var0 Addr) (var1 Addr) (var2 Addr) (var3 Addr) (var4 Heap)) (or (not (inv_main44 var4 var0 var3 var2 var1)) (inv_main47 var4 var0 var3 var2 var1 (tail (getsl (read var4 var1)))))))
(assert (forall ((var0 Addr) (var1 Addr) (var2 sl_item) (var3 Addr) (var4 Addr) (var5 Addr) (var6 sl) (var7 Addr) (var8 Addr) (var9 Heap) (var10 Addr) (var11 Addr) (var12 Addr) (var13 Addr) (var14 Heap) (var15 Heap)) (or (not (and (inv_main32 var15 var0 var4 var12) (and (and (and (and (and (and (= var9 (newHeap (alloc var14 (O_sl var6)))) (= var3 var1)) (= var11 var7)) (= var13 var5)) (= var8 (newAddr (alloc var14 (O_sl var6))))) (= var5 nullAddr)) (and (and (and (and (= var14 var15) (= var1 var0)) (= var7 var4)) (= var10 var12)) (= var5 (n (getnode (read var15 var12)))))))) (inv_main43 (newHeap (alloc var9 (O_sl_item var2))) var3 var11 var13 var8 (newAddr (alloc var9 (O_sl_item var2)))))))
(assert (forall ((var0 Addr) (var1 Addr) (var2 sl) (var3 Addr) (var4 Addr) (var5 Addr) (var6 sl_item) (var7 Addr) (var8 Addr) (var9 Addr) (var10 Heap) (var11 Addr) (var12 Heap) (var13 Heap) (var14 Addr)) (or (not (and (inv_main27 var13 var0 var8 var11) (and (and (and (and (and (and (= var10 (newHeap (alloc var12 (O_sl var2)))) (= var3 var9)) (= var1 var14)) (= var7 var9)) (= var4 (newAddr (alloc var12 (O_sl var2))))) (= var9 nullAddr)) (and (and (and (= var12 (write var13 var11 (O_node (node (h (getnode (read var13 var11))) 0)))) (= var9 var0)) (= var14 var8)) (= var5 var11))))) (inv_main43 (newHeap (alloc var10 (O_sl_item var6))) var3 var1 var7 var4 (newAddr (alloc var10 (O_sl_item var6)))))))
(assert (forall ((var0 Addr) (var1 Addr) (var2 Addr) (var3 Addr) (var4 Addr) (var5 Addr) (var6 Addr) (var7 Addr) (var8 Addr) (var9 Int) (var10 Heap) (var11 Addr) (var12 Addr) (var13 Addr) (var14 Addr) (var15 Addr) (var16 Addr) (var17 Addr) (var18 Heap)) (or (not (and (inv_main79 var18 var0 var4 var13 var16 var3 var2 var1 var6) (and (not (= var9 0)) (and (and (and (and (and (and (and (and (= var10 (write var18 var2 (O_sl_item (sl_item var6 (n2 (getsl_item (read var18 var2))))))) (= var8 var0)) (= var17 var4)) (= var14 var13)) (= var11 var16)) (= var15 var3)) (= var5 var2)) (= var7 var1)) (= var12 var6))))) (inv_main82 var10 var8 var17 var14 var11 var15 var5 var7 var12))))
(assert (forall ((var0 Addr) (var1 Addr) (var2 Addr) (var3 Addr) (var4 Addr) (var5 Addr) (var6 Heap)) (or (not (and (inv_main91 var6 var0 var3 var2 var4 var5 var1) (not (= (head (getsl (read var6 var5))) nullAddr)))) (inv_main93 var6 var0 var3 var2 var4 var5 var1))))
(assert (forall ((var0 Addr) (var1 Addr) (var2 Addr) (var3 Addr) (var4 Addr) (var5 Addr) (var6 Addr) (var7 Addr) (var8 Heap)) (or (not (inv_main82 var8 var0 var5 var2 var7 var4 var3 var1 var6)) (inv_main86 var8 var0 var5 var2 var7 var4 var3 var1 var6 (n2 (getsl_item (read var8 var1)))))))
(assert (forall ((var0 Addr) (var1 Addr) (var2 Addr) (var3 Addr) (var4 Addr) (var5 Addr) (var6 Heap) (var7 Addr) (var8 Int) (var9 sl_item) (var10 Addr) (var11 Addr) (var12 Addr) (var13 Addr) (var14 Addr) (var15 Heap) (var16 Addr) (var17 Addr) (var18 Addr) (var19 Addr) (var20 Addr) (var21 Addr) (var22 Addr) (var23 Addr) (var24 Addr) (var25 Addr) (var26 Addr) (var27 Addr) (var28 Addr) (var29 Heap) (var30 Addr)) (or (not (and (inv_main72 var15 var16 var20 var26 var14 var19 var5 var2 var22 var24) (and (and (and (and (and (and (and (and (and (and (= var6 (newHeap (alloc var29 (O_sl_item var9)))) (= var0 var28)) (= var21 var4)) (= var25 var1)) (= var18 var27)) (= var13 var17)) (= var23 var30)) (= var7 var10)) (= var11 var3)) (= var12 (newAddr (alloc var29 (O_sl_item var9))))) (and (= var8 0) (and (and (and (and (and (and (and (and (and (= var29 var15) (= var28 var16)) (= var4 var20)) (= var1 var26)) (= var27 var14)) (= var17 var19)) (= var30 var5)) (= var10 var2)) (= var3 var22)) (or (and (not (= var24 (n2 (getsl_item (read var15 var2))))) (= var8 1)) (and (= var24 (n2 (getsl_item (read var15 var2)))) (= var8 0)))))))) (inv_main77 var6 var0 var21 var25 var18 var13 var23 var7 var12))))
(assert (forall ((var0 Addr) (var1 Int) (var2 Addr) (var3 Heap) (var4 Addr) (var5 Addr) (var6 Addr) (var7 Addr) (var8 Addr) (var9 sl_item) (var10 Addr) (var11 Int) (var12 Addr) (var13 Addr) (var14 Addr) (var15 Addr) (var16 Addr) (var17 Heap) (var18 Addr) (var19 Addr) (var20 Addr) (var21 Addr) (var22 Addr) (var23 Addr) (var24 Addr) (var25 Addr) (var26 Addr) (var27 Heap) (var28 Addr) (var29 Addr) (var30 Addr) (var31 Addr)) (or (not (and (inv_main72 var17 var18 var23 var28 var15 var22 var8 var4 var24 var26) (and (and (and (and (and (and (and (and (and (and (= var3 (newHeap (alloc var27 (O_sl_item var9)))) (= var10 var25)) (= var19 var29)) (= var21 var0)) (= var16 var20)) (= var14 var12)) (= var31 var6)) (= var7 var5)) (= var2 var13)) (= var30 (newAddr (alloc var27 (O_sl_item var9))))) (and (= var1 0) (and (not (= var11 0)) (and (and (and (and (and (and (and (and (and (= var27 var17) (= var25 var18)) (= var29 var23)) (= var0 var28)) (= var20 var15)) (= var12 var22)) (= var6 var8)) (= var5 var4)) (= var13 var24)) (or (and (not (= var26 (n2 (getsl_item (read var17 var4))))) (= var11 1)) (and (= var26 (n2 (getsl_item (read var17 var4)))) (= var11 0))))))))) (inv_main77 var3 var10 var19 var21 var16 var14 var31 var7 var30))))
(assert (forall ((var0 Addr) (var1 Heap) (var2 Addr) (var3 Addr) (var4 Addr) (var5 Addr) (var6 Addr) (var7 Addr) (var8 Addr) (var9 Addr) (var10 Addr) (var11 Int) (var12 Addr) (var13 Addr) (var14 Addr) (var15 Addr) (var16 Addr) (var17 Addr) (var18 Int) (var19 Heap) (var20 Addr)) (or (not (and (inv_main64 var19 var0 var7 var14 var17 var6 var5 var3 var8 var20) (and (not (= var18 0)) (and (not (= var11 0)) (and (and (and (and (and (and (and (and (and (= var1 var19) (= var10 var0)) (= var12 var7)) (= var9 var14)) (= var2 var17)) (= var4 var6)) (= var16 var5)) (= var13 var3)) (= var15 var8)) (or (and (not (= var20 (tail (getsl (read var19 var6))))) (= var11 1)) (and (= var20 (tail (getsl (read var19 var6)))) (= var11 0)))))))) (inv_main63 var1 var10 var12 var9 var2 var4 var16 var13 var15))))
(assert (forall ((var0 Addr) (var1 Addr) (var2 Int) (var3 Heap) (var4 Addr) (var5 Addr) (var6 Addr) (var7 Addr) (var8 Heap)) (or (not (and (inv_main31 var8 var0 var7 var4) (and (not (= var2 2)) (and (and (and (and (= var3 var8) (= var1 var0)) (= var6 var7)) (= var5 var4)) (= var2 (h (getnode (read var8 var4)))))))) (inv_main33 var3 var1 var6 var5))))
(assert (forall ((var0 Addr) (var1 Heap) (var2 Addr) (var3 Addr) (var4 Addr) (var5 Addr) (var6 Addr) (var7 Addr) (var8 Addr) (var9 Addr) (var10 Addr) (var11 Addr) (var12 Addr) (var13 Addr) (var14 Addr) (var15 Addr) (var16 Addr) (var17 Addr) (var18 Heap)) (or (not (and (inv_main71 var18 var0 var9 var14 var16 var8 var7 var5 var10) (and (and (and (and (and (and (and (and (and (= var1 var18) (= var17 var0)) (= var4 var9)) (= var6 var14)) (= var11 var16)) (= var13 var8)) (= var3 var7)) (= var12 var5)) (= var2 var10)) (= var15 (n1 (getsl_item (read var18 var7))))))) (inv_main69 var1 var17 var4 var6 var11 var13 var15 var12 var2))))
(assert (forall ((var0 Addr) (var1 Int) (var2 Heap) (var3 Addr) (var4 Addr) (var5 Addr) (var6 Addr) (var7 Addr) (var8 Addr) (var9 Addr) (var10 Addr) (var11 Addr) (var12 Addr) (var13 Addr) (var14 Addr) (var15 Addr) (var16 Addr) (var17 Heap) (var18 Addr) (var19 Addr)) (or (not (and (inv_main64 var17 var0 var8 var15 var16 var7 var6 var5 var9 var19) (and (= var1 0) (and (and (and (and (and (and (and (and (and (= var2 var17) (= var14 var0)) (= var10 var8)) (= var4 var15)) (= var3 var16)) (= var13 var7)) (= var12 var6)) (= var11 var5)) (= var18 var9)) (or (and (not (= var19 (tail (getsl (read var17 var7))))) (= var1 1)) (and (= var19 (tail (getsl (read var17 var7)))) (= var1 0))))))) (inv_main69 var2 var14 var10 var4 var3 var13 var11 var11 var18))))
(assert (forall ((var0 Addr) (var1 Heap) (var2 Addr) (var3 Addr) (var4 Addr) (var5 Addr) (var6 Addr) (var7 Int) (var8 Addr) (var9 Addr) (var10 Addr) (var11 Addr) (var12 Int) (var13 Addr) (var14 Addr) (var15 Addr) (var16 Addr) (var17 Addr) (var18 Addr) (var19 Heap) (var20 Addr)) (or (not (and (inv_main64 var19 var0 var8 var15 var18 var6 var5 var3 var9 var20) (and (= var7 0) (and (not (= var12 0)) (and (and (and (and (and (and (and (and (and (= var1 var19) (= var11 var0)) (= var13 var8)) (= var10 var15)) (= var2 var18)) (= var4 var6)) (= var17 var5)) (= var14 var3)) (= var16 var9)) (or (and (not (= var20 (tail (getsl (read var19 var6))))) (= var12 1)) (and (= var20 (tail (getsl (read var19 var6)))) (= var12 0)))))))) (inv_main69 var1 var11 var13 var10 var2 var4 var14 var14 var16))))
(assert (forall ((var0 Addr) (var1 Addr) (var2 Addr) (var3 Addr) (var4 Addr) (var5 Heap)) (or (not (inv_main45 var5 var0 var4 var3 var1 var2)) (inv_main44 (write var5 var1 (O_sl (sl (head (getsl (read var5 var1))) var2))) var0 var4 var3 var1))))
(assert (forall ((var0 Addr) (var1 Addr) (var2 Addr) (var3 Addr) (var4 Addr) (var5 Addr) (var6 Addr) (var7 Addr) (var8 Addr) (var9 Heap)) (or (not (inv_main80 var9 var0 var6 var2 var8 var4 var3 var1 var7 var5)) (inv_main79 (write var9 var7 (O_sl_item (sl_item var5 (n2 (getsl_item (read var9 var7)))))) var0 var6 var2 var8 var4 var3 var1 var7))))
(assert (forall ((var0 Addr) (var1 Addr) (var2 Addr) (var3 Addr) (var4 Addr) (var5 Addr) (var6 Addr) (var7 Addr) (var8 Heap)) (or (not (inv_main60 var8 var0 var5 var2 var7 var4 var3 var1 var6)) (inv_main64 var8 var0 var5 var2 var7 var4 var3 var1 var6 (n2 (getsl_item (read var8 var1)))))))
(assert (forall ((var0 Addr) (var1 Addr) (var2 Addr) (var3 Addr) (var4 Addr) (var5 Addr) (var6 Heap) (var7 Addr) (var8 Heap)) (or (not (and (inv_main32 var8 var0 var4 var3) (and (not (= var5 nullAddr)) (and (and (and (and (= var6 var8) (= var1 var0)) (= var7 var4)) (= var2 var3)) (= var5 (n (getnode (read var8 var3)))))))) (inv_main31 var6 var1 var7 var5))))
(assert (forall ((var0 Addr) (var1 Addr) (var2 Addr) (var3 Heap) (var4 Addr) (var5 Addr) (var6 Heap) (var7 Addr)) (or (not (and (inv_main27 var6 var0 var4 var2) (and (not (= var5 nullAddr)) (and (and (and (= var3 (write var6 var2 (O_node (node (h (getnode (read var6 var2))) 0)))) (= var5 var0)) (= var7 var4)) (= var1 var2))))) (inv_main31 var3 var5 var7 var5))))
(assert (forall ((var0 Addr) (var1 Addr) (var2 Addr) (var3 Int) (var4 Heap)) (or (not (inv_main22 var4 var0 var2 var1 var3)) (inv_main22 var4 var0 var2 var1 var3))))
(assert (forall ((var0 Addr) (var1 Heap) (var2 Heap) (var3 Addr) (var4 Addr) (var5 Addr) (var6 Addr) (var7 Addr) (var8 Addr) (var9 Addr) (var10 node) (var11 Addr) (var12 Addr) (var13 Heap)) (or (not (and (inv_main14 var13 var0 var3 var11) (and (= var4 nullAddr) (and (and (and (and (and (= var2 (newHeap (alloc var1 (O_node var10)))) (= var8 var7)) (= var12 var6)) (= var5 var9)) (= var4 (newAddr (alloc var1 (O_node var10))))) (and (and (and (= var1 (write var13 var11 (O_node (node 1 (n (getnode (read var13 var11))))))) (= var7 var0)) (= var6 var3)) (= var9 var11)))))) (inv_main22 var2 var8 var4 var5 1))))
(assert (forall ((var0 Addr) (var1 Heap) (var2 Addr) (var3 Addr) (var4 Addr) (var5 Addr) (var6 Addr) (var7 Addr) (var8 Addr) (var9 Addr) (var10 Addr) (var11 Addr) (var12 Addr) (var13 Addr) (var14 Heap)) (or (not (and (inv_main97 var14 var0 var4 var9 var12 var13 var7 var10) (and (and (and (and (and (and (= var1 (write var14 var13 (O_sl (sl var10 (tail (getsl (read var14 var13))))))) (= var8 var0)) (= var6 var4)) (= var11 var9)) (= var3 var12)) (= var5 var13)) (= var2 var7)))) (inv_main91 (write var1 var2 defObj) var8 var6 var11 var3 var5 var2))))
(assert (forall ((var0 Addr) (var1 Int) (var2 Addr) (var3 Addr) (var4 Addr) (var5 Addr) (var6 Heap)) (or (not (and (inv_main51 var6 var0 var4 var2 var5) (= var1 0))) (inv_main91 var6 var0 var4 var2 var5 var5 var3))))
(assert (forall ((var0 Addr) (var1 Addr) (var2 Addr) (var3 Addr) (var4 Addr) (var5 Heap)) (or (not (inv_main47 var5 var0 var3 var2 var1 var4)) (inv_main48 (write var5 (head (getsl (read var5 var1))) (O_sl_item (sl_item var4 (n2 (getsl_item (read var5 (head (getsl (read var5 var1))))))))) var0 var3 var2 var1 var4))))
(assert (forall ((var0 Addr) (var1 Addr) (var2 Addr) (var3 Addr) (var4 Addr) (var5 Addr) (var6 Addr) (var7 Addr) (var8 Addr) (var9 Addr) (var10 Addr) (var11 Addr) (var12 Addr) (var13 Addr) (var14 Addr) (var15 Addr) (var16 Addr) (var17 Heap) (var18 Heap)) (or (not (and (inv_main59 var17 var0 var8 var12 var15 var6 var5 var2 var9) (and (and (and (and (and (and (and (and (and (= var18 var17) (= var13 var0)) (= var14 var8)) (= var10 var12)) (= var4 var15)) (= var3 var6)) (= var16 var5)) (= var11 var2)) (= var7 var9)) (= var1 (head (getsl (read var17 var6))))))) (inv_main60 var18 var13 var14 var10 var4 var3 var16 var1 var7))))
(assert (forall ((var0 Addr) (var1 Addr) (var2 Heap) (var3 Addr) (var4 Addr) (var5 Addr) (var6 Addr) (var7 Addr) (var8 Addr) (var9 Addr) (var10 Addr) (var11 Addr) (var12 Addr) (var13 Addr) (var14 Addr) (var15 Addr) (var16 Addr) (var17 Addr) (var18 Heap)) (or (not (and (inv_main63 var18 var0 var5 var13 var17 var4 var3 var1 var7) (and (and (and (and (and (and (and (and (and (= var2 var18) (= var12 var0)) (= var10 var5)) (= var15 var13)) (= var14 var17)) (= var11 var4)) (= var8 var3)) (= var16 var1)) (= var9 var7)) (= var6 (n2 (getsl_item (read var18 var1))))))) (inv_main60 var2 var12 var10 var15 var14 var11 var8 var6 var9))))
(assert (forall ((var0 Addr) (var1 Addr) (var2 Addr) (var3 Addr) (var4 Int) (var5 Addr) (var6 Addr) (var7 Addr) (var8 Heap)) (or (not (and (inv_main51 var8 var0 var6 var5 var7) (not (= var4 0)))) (inv_main59 var8 var0 var6 var5 var7 var7 var1 var3 var2))))
(assert (forall ((var0 Addr) (var1 Addr) (var2 Addr) (var3 Addr) (var4 Addr) (var5 Addr) (var6 Heap)) (or (not (inv_main94 var6 var0 var3 var2 var4 var5 var1)) (inv_main97 var6 var0 var3 var2 var4 var5 var1 (n1 (getsl_item (read var6 (head (getsl (read var6 var5))))))))))
(assert (forall ((var0 Addr) (var1 Int) (var2 Addr) (var3 Addr) (var4 Addr) (var5 Addr) (var6 Addr) (var7 Heap) (var8 Heap)) (or (not (and (inv_main11 var8 var0 var6 var3) (and (= var1 0) (and (and (and (= var7 (write var8 var0 (O_node (node 2 (n (getnode (read var8 var0))))))) (= var5 var0)) (= var2 var6)) (= var4 var3))))) (inv_main13 var7 var5 var2 var4))))
(assert (forall ((var0 Addr) (var1 Addr) (var2 Addr) (var3 Addr) (var4 Addr) (var5 Addr) (var6 Heap) (var7 Addr) (var8 Heap) (var9 Int)) (or (not (and (inv_main25 var8 var0 var5 var4) (and (= var9 0) (and (and (and (and (= var6 var8) (= var3 var0)) (= var7 var5)) (= var1 var4)) (= var2 (n (getnode (read var8 var4)))))))) (inv_main13 var6 var3 var7 var2))))
(assert (forall ((var0 Addr) (var1 Addr) (var2 Addr) (var3 Heap)) (or (not (inv_main13 var3 var0 var2 var1)) (inv_main27 (write var3 var1 (O_node (node 2 (n (getnode (read var3 var1)))))) var0 var2 var1))))
(assert (forall ((var0 Addr) (var1 Addr) (var2 Addr) (var3 Heap)) (or (not (inv_main19 var3 var0 var2 var1)) (inv_main25 (write var3 var1 (O_node (node (h (getnode (read var3 var1))) var2))) var0 var2 var1))))
(assert (forall ((var0 node) (var1 Addr) (var2 Addr) (var3 Heap) (var4 Heap)) (or (not (and (inv_main2 var3) (and (not (= var1 nullAddr)) (and (= var4 (newHeap (alloc var3 (O_node var0)))) (= var1 (newAddr (alloc var3 (O_node var0)))))))) (inv_main11 var4 var1 var2 var1))))
(assert (forall ((var0 Addr) (var1 Addr) (var2 Addr) (var3 Addr) (var4 Heap)) (or (not (inv_main46 var4 var0 var3 var2 var1)) (inv_main50 (write var4 (tail (getsl (read var4 var1))) (O_sl_item (sl_item nullAddr (n2 (getsl_item (read var4 (tail (getsl (read var4 var1))))))))) var0 var3 var2 var1 nullAddr))))
(assert (forall ((var0 Addr) (var1 Addr) (var2 Addr) (var3 Addr) (var4 Addr) (var5 Heap) (var6 Addr) (var7 Int) (var8 Heap)) (or (not (and (inv_main31 var8 var0 var3 var2) (and (= var7 2) (and (and (and (and (= var5 var8) (= var1 var0)) (= var4 var3)) (= var6 var2)) (= var7 (h (getnode (read var8 var2)))))))) (inv_main32 var5 var1 var4 var6))))
(assert (forall ((var0 Addr) (var1 Addr) (var2 Addr) (var3 Addr) (var4 Addr) (var5 Addr) (var6 Addr) (var7 Addr) (var8 Addr) (var9 Heap)) (or (not (inv_main86 var9 var0 var6 var2 var8 var4 var3 var1 var7 var5)) (inv_main85 (write var9 var7 (O_sl_item (sl_item (n1 (getsl_item (read var9 var7))) var5))) var0 var6 var2 var8 var4 var3 var1 var7))))
(assert (forall ((var0 Addr) (var1 Addr) (var2 Addr) (var3 Addr) (var4 Addr) (var5 Addr) (var6 Addr) (var7 Addr) (var8 Heap)) (or (not (inv_main77 var8 var0 var5 var2 var7 var4 var3 var1 var6)) (inv_main80 var8 var0 var5 var2 var7 var4 var3 var1 var6 (n1 (getsl_item (read var8 var3)))))))
(assert (forall ((var0 Addr) (var1 Addr) (var2 Addr) (var3 Addr) (var4 Addr) (var5 Addr) (var6 Heap) (var7 Addr) (var8 Addr) (var9 Addr) (var10 Heap)) (or (not (and (inv_main50 var10 var0 var9 var8 var1 var3) (and (and (and (and (= var6 (write var10 (tail (getsl (read var10 var1))) (O_sl_item (sl_item (n1 (getsl_item (read var10 (tail (getsl (read var10 var1)))))) var3)))) (= var2 var0)) (= var5 var9)) (= var7 var8)) (= var4 var1)))) (inv_main51 var6 var2 var5 var7 var4))))
(assert (forall ((var0 Addr) (var1 Addr) (var2 Addr) (var3 Addr) (var4 Addr) (var5 Addr) (var6 Addr) (var7 Addr) (var8 Heap) (var9 Addr) (var10 Addr) (var11 Addr) (var12 Addr) (var13 Addr) (var14 Heap)) (or (not (and (inv_main85 var14 var0 var5 var11 var13 var4 var3 var2 var6) (and (and (and (and (and (= var8 (write var14 var2 (O_sl_item (sl_item (n1 (getsl_item (read var14 var2))) var6)))) (= var12 var0)) (= var9 var5)) (= var1 var11)) (= var10 var13)) (= var7 var4)))) (inv_main51 var8 var12 var9 var1 var10))))
(assert (forall ((var0 Addr) (var1 Addr) (var2 Addr) (var3 Addr) (var4 Addr) (var5 Addr) (var6 Addr) (var7 Addr) (var8 Addr) (var9 Int) (var10 Heap) (var11 Addr) (var12 Addr) (var13 Addr) (var14 Addr) (var15 Addr) (var16 Addr) (var17 Addr) (var18 Heap)) (or (not (and (inv_main79 var18 var0 var4 var13 var16 var3 var2 var1 var6) (and (= var9 0) (and (and (and (and (and (and (and (and (= var10 (write var18 var2 (O_sl_item (sl_item var6 (n2 (getsl_item (read var18 var2))))))) (= var8 var0)) (= var17 var4)) (= var14 var13)) (= var11 var16)) (= var15 var3)) (= var5 var2)) (= var7 var1)) (= var12 var6))))) (inv_main51 var10 var8 var17 var14 var11))))
(assert (forall ((var0 Addr) (var1 Addr) (var2 Addr) (var3 Addr) (var4 Addr) (var5 Addr) (var6 sl_item) (var7 Addr) (var8 Addr) (var9 Addr) (var10 Heap) (var11 Heap)) (or (not (and (inv_main43 var11 var0 var7 var5 var1 var4) (and (and (and (and (= var10 (write var11 var1 (O_sl (sl var4 (tail (getsl (read var11 var1))))))) (= var3 var0)) (= var2 var7)) (= var8 var5)) (= var9 var1)))) (inv_main45 (newHeap (alloc var10 (O_sl_item var6))) var3 var2 var8 var9 (newAddr (alloc var10 (O_sl_item var6)))))))
(assert (forall ((var0 Addr) (var1 Addr) (var2 Addr) (var3 Heap) (var4 Addr) (var5 Addr) (var6 Addr) (var7 Addr) (var8 Addr) (var9 Addr) (var10 Addr) (var11 Addr) (var12 Addr) (var13 Addr) (var14 Heap)) (or (not (and (inv_main93 var14 var0 var5 var9 var11 var13 var8) (and (and (and (and (and (and (and (= var3 var14) (= var4 var0)) (= var7 var5)) (= var2 var9)) (= var6 var11)) (= var10 var13)) (= var12 var8)) (= var1 (head (getsl (read var14 var13))))))) (inv_main94 var3 var4 var7 var2 var6 var10 var1))))
(assert (forall ((var0 Addr) (var1 Int) (var2 Heap)) (or (not (inv_main7 var2 var0 var1)) (inv_main7 var2 var0 var1))))
(assert (forall ((var0 node) (var1 Addr) (var2 Heap) (var3 Heap)) (or (not (and (inv_main2 var3) (and (= var1 nullAddr) (and (= var2 (newHeap (alloc var3 (O_node var0)))) (= var1 (newAddr (alloc var3 (O_node var0)))))))) (inv_main7 var2 var1 1))))
(assert (forall ((var0 Addr) (var1 Addr) (var2 Addr) (var3 Addr) (var4 Addr) (var5 Heap) (var6 Int) (var7 Addr) (var8 Heap)) (or (not (and (inv_main11 var8 var0 var4 var2) (and (not (= var6 0)) (and (and (and (= var5 (write var8 var0 (O_node (node 2 (n (getnode (read var8 var0))))))) (= var1 var0)) (= var3 var4)) (= var7 var2))))) (inv_main14 var5 var1 var3 var7))))
(assert (forall ((var0 Addr) (var1 Addr) (var2 Addr) (var3 Int) (var4 Addr) (var5 Addr) (var6 Addr) (var7 Heap) (var8 Addr) (var9 Heap)) (or (not (and (inv_main25 var9 var0 var6 var5) (and (not (= var3 0)) (and (and (and (and (= var7 var9) (= var4 var0)) (= var8 var6)) (= var1 var5)) (= var2 (n (getnode (read var9 var5)))))))) (inv_main14 var7 var4 var8 var2))))
(assert (forall ((var0 Addr) (var1 Addr) (var2 Addr) (var3 Heap)) (not (and (inv_main11 var3 var0 var2 var1) (not (is-O_node (read var3 var0)))))))
(assert (forall ((var0 Addr) (var1 Addr) (var2 Addr) (var3 Heap)) (not (and (inv_main14 var3 var0 var2 var1) (not (is-O_node (read var3 var1)))))))
(assert (forall ((var0 Addr) (var1 Addr) (var2 Addr) (var3 Heap)) (not (and (inv_main19 var3 var0 var2 var1) (not (is-O_node (read var3 var1)))))))
(assert (forall ((var0 Addr) (var1 Addr) (var2 Addr) (var3 Heap)) (not (and (inv_main25 var3 var0 var2 var1) (not (is-O_node (read var3 var1)))))))
(assert (forall ((var0 Addr) (var1 Addr) (var2 Addr) (var3 Heap)) (not (and (inv_main13 var3 var0 var2 var1) (not (is-O_node (read var3 var1)))))))
(assert (forall ((var0 Addr) (var1 Addr) (var2 Addr) (var3 Heap)) (not (and (inv_main27 var3 var0 var2 var1) (not (is-O_node (read var3 var1)))))))
(assert (forall ((var0 Addr) (var1 Addr) (var2 Addr) (var3 Heap)) (not (and (inv_main31 var3 var0 var2 var1) (not (is-O_node (read var3 var1)))))))
(assert (forall ((var0 Addr) (var1 Addr) (var2 Addr) (var3 Heap)) (not (inv_main33 var3 var0 var2 var1))))
(assert (forall ((var0 Addr) (var1 Addr) (var2 Addr) (var3 Heap)) (not (and (inv_main32 var3 var0 var2 var1) (not (is-O_node (read var3 var1)))))))
(assert (forall ((var0 Addr) (var1 Addr) (var2 Addr) (var3 Addr) (var4 Addr) (var5 Heap)) (not (and (inv_main43 var5 var0 var4 var3 var1 var2) (not (is-O_sl (read var5 var1)))))))
(assert (forall ((var0 Addr) (var1 Addr) (var2 Addr) (var3 Addr) (var4 Addr) (var5 Heap)) (not (and (inv_main45 var5 var0 var4 var3 var1 var2) (not (is-O_sl (read var5 var1)))))))
(assert (forall ((var0 Addr) (var1 Addr) (var2 Addr) (var3 Addr) (var4 Heap)) (not (and (inv_main44 var4 var0 var3 var2 var1) (not (is-O_sl (read var4 var1)))))))
(assert (forall ((var0 Addr) (var1 Addr) (var2 Addr) (var3 Addr) (var4 Addr) (var5 Heap)) (not (and (inv_main47 var5 var0 var3 var2 var1 var4) (not (is-O_sl (read var5 var1)))))))
(assert (forall ((var0 Addr) (var1 Addr) (var2 Addr) (var3 Addr) (var4 Addr) (var5 Heap)) (not (and (inv_main47 var5 var0 var3 var2 var1 var4) (not (is-O_sl_item (read var5 (head (getsl (read var5 var1))))))))))
(assert (forall ((var0 Addr) (var1 Addr) (var2 Addr) (var3 Addr) (var4 Addr) (var5 Heap)) (not (and (inv_main48 var5 var0 var4 var2 var1 var3) (not (is-O_sl (read var5 var1)))))))
(assert (forall ((var0 Addr) (var1 Addr) (var2 Addr) (var3 Addr) (var4 Addr) (var5 Heap)) (not (and (inv_main48 var5 var0 var4 var2 var1 var3) (not (is-O_sl_item (read var5 (head (getsl (read var5 var1))))))))))
(assert (forall ((var0 Addr) (var1 Addr) (var2 Addr) (var3 Addr) (var4 Heap)) (not (and (inv_main46 var4 var0 var3 var2 var1) (not (is-O_sl (read var4 var1)))))))
(assert (forall ((var0 Addr) (var1 Addr) (var2 Addr) (var3 Addr) (var4 Heap)) (not (and (inv_main46 var4 var0 var3 var2 var1) (not (is-O_sl_item (read var4 (tail (getsl (read var4 var1))))))))))
(assert (forall ((var0 Addr) (var1 Addr) (var2 Addr) (var3 Addr) (var4 Addr) (var5 Heap)) (not (and (inv_main50 var5 var0 var4 var3 var1 var2) (not (is-O_sl (read var5 var1)))))))
(assert (forall ((var0 Addr) (var1 Addr) (var2 Addr) (var3 Addr) (var4 Addr) (var5 Heap)) (not (and (inv_main50 var5 var0 var4 var3 var1 var2) (not (is-O_sl_item (read var5 (tail (getsl (read var5 var1))))))))))
(assert (forall ((var0 Addr) (var1 Addr) (var2 Addr) (var3 Addr) (var4 Addr) (var5 Addr) (var6 Addr) (var7 Addr) (var8 Heap)) (not (and (inv_main59 var8 var0 var5 var2 var7 var4 var3 var1 var6) (not (is-O_sl (read var8 var4)))))))
(assert (forall ((var0 Addr) (var1 Addr) (var2 Addr) (var3 Addr) (var4 Addr) (var5 Addr) (var6 Addr) (var7 Addr) (var8 Heap)) (not (and (inv_main60 var8 var0 var5 var2 var7 var4 var3 var1 var6) (not (is-O_sl_item (read var8 var1)))))))
(assert (forall ((var0 Addr) (var1 Addr) (var2 Addr) (var3 Addr) (var4 Addr) (var5 Addr) (var6 Addr) (var7 Addr) (var8 Heap) (var9 Addr)) (not (and (inv_main64 var8 var0 var5 var2 var7 var4 var3 var1 var6 var9) (not (is-O_sl (read var8 var4)))))))
(assert (forall ((var0 Addr) (var1 Addr) (var2 Addr) (var3 Addr) (var4 Addr) (var5 Addr) (var6 Addr) (var7 Addr) (var8 Heap)) (not (and (inv_main63 var8 var0 var5 var2 var7 var4 var3 var1 var6) (not (is-O_sl_item (read var8 var1)))))))
(assert (forall ((var0 Addr) (var1 Addr) (var2 Addr) (var3 Addr) (var4 Addr) (var5 Addr) (var6 Addr) (var7 Addr) (var8 Heap)) (not (and (inv_main69 var8 var0 var5 var2 var7 var4 var3 var1 var6) (not (is-O_sl_item (read var8 var3)))))))
(assert (forall ((var0 Addr) (var1 Addr) (var2 Addr) (var3 Addr) (var4 Addr) (var5 Addr) (var6 Addr) (var7 Addr) (var8 Addr) (var9 Heap)) (not (and (inv_main72 var9 var0 var6 var3 var8 var5 var4 var2 var7 var1) (not (is-O_sl_item (read var9 var2)))))))
(assert (forall ((var0 Addr) (var1 Addr) (var2 Addr) (var3 Addr) (var4 Addr) (var5 Addr) (var6 Addr) (var7 Addr) (var8 Heap)) (not (and (inv_main71 var8 var0 var5 var2 var7 var4 var3 var1 var6) (not (is-O_sl_item (read var8 var3)))))))
(assert (forall ((var0 Addr) (var1 Addr) (var2 Addr) (var3 Addr) (var4 Addr) (var5 Addr) (var6 Addr) (var7 Addr) (var8 Heap)) (not (and (inv_main77 var8 var0 var5 var2 var7 var4 var3 var1 var6) (not (is-O_sl_item (read var8 var3)))))))
(assert (forall ((var0 Addr) (var1 Addr) (var2 Addr) (var3 Addr) (var4 Addr) (var5 Addr) (var6 Addr) (var7 Addr) (var8 Addr) (var9 Heap)) (not (and (inv_main80 var9 var0 var6 var2 var8 var4 var3 var1 var7 var5) (not (is-O_sl_item (read var9 var7)))))))
(assert (forall ((var0 Addr) (var1 Addr) (var2 Addr) (var3 Addr) (var4 Addr) (var5 Addr) (var6 Addr) (var7 Addr) (var8 Heap)) (not (and (inv_main79 var8 var0 var5 var2 var7 var4 var3 var1 var6) (not (is-O_sl_item (read var8 var3)))))))
(assert (forall ((var0 Addr) (var1 Addr) (var2 Addr) (var3 Addr) (var4 Addr) (var5 Addr) (var6 Addr) (var7 Addr) (var8 Heap)) (not (and (inv_main82 var8 var0 var5 var2 var7 var4 var3 var1 var6) (not (is-O_sl_item (read var8 var1)))))))
(assert (forall ((var0 Addr) (var1 Addr) (var2 Addr) (var3 Addr) (var4 Addr) (var5 Addr) (var6 Addr) (var7 Addr) (var8 Addr) (var9 Heap)) (not (and (inv_main86 var9 var0 var6 var2 var8 var4 var3 var1 var7 var5) (not (is-O_sl_item (read var9 var7)))))))
(assert (forall ((var0 Addr) (var1 Addr) (var2 Addr) (var3 Addr) (var4 Addr) (var5 Addr) (var6 Addr) (var7 Addr) (var8 Heap)) (not (and (inv_main85 var8 var0 var5 var2 var7 var4 var3 var1 var6) (not (is-O_sl_item (read var8 var1)))))))
(assert (forall ((var0 Addr) (var1 Addr) (var2 Addr) (var3 Addr) (var4 Addr) (var5 Addr) (var6 Heap)) (not (and (inv_main91 var6 var0 var3 var2 var4 var5 var1) (not (is-O_sl (read var6 var5)))))))
(assert (forall ((var0 Addr) (var1 Addr) (var2 Addr) (var3 Addr) (var4 Addr) (var5 Addr) (var6 Heap)) (not (and (inv_main93 var6 var0 var3 var2 var4 var5 var1) (not (is-O_sl (read var6 var5)))))))
(assert (forall ((var0 Addr) (var1 Addr) (var2 Addr) (var3 Addr) (var4 Addr) (var5 Addr) (var6 Heap)) (not (and (inv_main94 var6 var0 var3 var2 var4 var5 var1) (not (is-O_sl (read var6 var5)))))))
(assert (forall ((var0 Addr) (var1 Addr) (var2 Addr) (var3 Addr) (var4 Addr) (var5 Addr) (var6 Heap)) (not (and (inv_main94 var6 var0 var3 var2 var4 var5 var1) (not (is-O_sl_item (read var6 (head (getsl (read var6 var5))))))))))
(assert (forall ((var0 Addr) (var1 Addr) (var2 Addr) (var3 Addr) (var4 Addr) (var5 Addr) (var6 Addr) (var7 Heap)) (not (and (inv_main97 var7 var0 var4 var2 var5 var6 var1 var3) (not (is-O_sl (read var7 var6)))))))
(check-sat)
